50, 62425
2551, 617
2552, 907
2553, 555
2554, 422
2555, 854
2556, 20
2557, 388
2558, 484
2559, 838
2560, 701
2561, 241
2562, 444
2563, 362
2564, 809
2565, 218
2566, 436
2567, 621
2568, 997
2569, 581
2570, 905
2571, 547
2572, 280
2573, 493
2574, 204
2575, 723
2576, 692
2577, 668
2578, 926
2579, 461
2580, 971
2581, 641
2582, 731
2583, 261
2584, 922
2585, 482
2586, 475
2587, 77
2588, 56
2589, 939
2590, 396
2591, 598
2592, 559
2593, 349
2594, 377
2595, 479
2596, 282
2597, 504
2598, 477
2599, 988
2600, 893
